
x = 1;
y = 50;
c = 1569;
n = 50;
w = [17 8 27 54 59 39 81 67 25 78 49 58 100 63 97 60 53 13 91 52 12 6 48 69 52 75 52 75 73 65 85 97 75 78 64 91 91 44 52 14 54 81 65 39 59 93 49 82 89 5];
p = [97 38 73 41 60 39 39 82 80 4 94 60 29 67 97 45 90 98 94 64 20 5 29 54 45 69 83 53 80 89 85 7 30 39 4 22 26 14 62 27 6 85 62 23 29 59 47 11 3 95];
s = [1 1 1 1 1 1 1 1 1 1 1 1 1 1 1 1 1 1 1 1 1 1 1 1 1 1 1 1 1 1 1 1 1 1 1 1 1 1 1 1 1 1 1 1 1 1 1 1 1 1];

